local_stuff/loop_inv_stuff/loop_inv_backup/repo/z3/36.out
STDOUT:
sat
(
  (define-fun inv ((x!0 Int)) Bool
    (not (>= x!0 41)))
)


STDERR:
